p wcnf 1000 200 2
1 1 0
1 2 0
1 3 0
1 4 0
1 5 0
1 6 0
1 7 0
1 8 0
1 9 0
1 10 0
1 11 0
2 12 0
1 2 2 2 2 2 2 3 3 3 3 3 0
1 3 3 3 3 4 4 4 4 4 4 4 0
1 5 5 5 5 5 5 5 6 6 6 6 0
1 6 6 6 6 6 7 7 7 7 7 7 0
1 7 7 7 7 7 7 8 8 8 8 8 0
1 9 9 9 9 10 10 10 10 10 10 10 0
1 10 10 11 11 11 11 11 11 11 11 11 0
1 11 12 12 12 12 12 12 12 12 12 13 0
1 13 13 13 13 13 14 14 14 14 14 14 0
1 14 14 14 14 15 15 15 15 15 15 15 0
1 15 16 16 16 16 16 16 16 16 16 16 0
1 17 17 17 17 17 17 17 17 17 17 17 0
1 18 18 18 18 18 18 18 18 18 18 18 0
1 18 18 19 19 19 19 19 19 19 19 19 0
1 19 20 20 20 20 20 20 20 20 20 20 0
1 20 20 20 21 21 21 21 21 21 21 21 0
1 22 22 22 22 22 22 22 22 22 22 22 0
1 23 23 23 23 23 23 23 23 23 23 23 0
1 24 24 24 24 24 25 25 25 25 25 25 0
1 26 26 26 26 26 26 26 27 27 27 27 0
1 27 27 27 27 27 27 28 28 28 28 28 0
1 28 28 28 29 29 29 29 29 29 29 29 0
1 30 30 30 30 30 30 30 30 30 30 31 0
1 31 31 31 31 31 31 32 32 32 32 32 0
1 32 32 32 33 33 33 33 33 33 33 33 0
1 34 34 34 34 34 34 34 34 34 34 34 0
1 35 35 35 35 35 35 35 35 36 36 36 0
1 36 36 36 36 36 36 37 37 37 37 37 0
1 37 37 37 37 37 38 38 38 38 38 38 0
1 38 39 39 39 39 39 39 40 40 40 40 0
1 40 40 40 40 40 40 40 40 40 41 41 0
1 41 41 41 42 42 42 42 42 42 42 42 0
1 42 42 42 43 43 43 43 43 43 43 43 0
1 43 44 44 44 44 44 45 45 45 45 45 0
1 45 46 46 46 46 46 46 46 46 46 47 0
1 47 47 47 47 47 47 47 47 47 48 48 0
1 48 48 48 48 48 48 48 48 49 49 49 0
1 49 49 49 49 49 49 50 50 50 50 50 0
1 50 50 51 51 51 51 51 51 51 51 51 0
1 52 52 52 52 52 52 53 53 53 53 53 0
1 53 53 53 53 53 53 53 53 54 54 54 0
1 54 54 54 54 54 54 54 54 54 55 55 0
1 55 55 55 55 55 55 55 55 55 56 56 0
1 56 56 56 56 56 56 56 56 56 56 56 0
1 56 57 57 57 57 57 57 57 57 58 58 0
1 58 58 58 58 58 58 58 59 59 59 59 0
1 59 59 59 60 60 60 60 61 61 61 61 0
1 61 61 61 61 61 62 62 62 62 62 62 0
1 62 62 62 62 62 62 63 63 63 63 63 0
1 63 63 63 63 63 64 64 64 64 64 64 0
1 64 64 64 65 65 65 65 65 65 65 65 0
1 66 66 66 66 66 66 66 66 67 67 67 0
1 67 67 67 67 67 67 67 67 67 67 67 0
1 68 68 68 69 69 69 69 69 69 69 69 0
1 69 69 69 69 70 70 70 70 70 70 70 0
1 70 70 70 71 71 71 71 71 71 71 71 0
1 71 72 72 72 72 72 72 72 72 72 72 0
1 73 73 73 73 73 73 73 73 73 73 74 0
1 74 74 74 74 75 75 75 75 75 75 75 0
1 75 75 75 76 76 76 76 76 76 76 76 0
1 76 76 77 77 77 77 77 77 77 77 77 0
1 78 78 78 78 78 78 78 78 78 78 78 0
1 78 78 78 78 78 79 79 79 79 79 79 0
1 79 79 79 79 80 80 80 80 80 80 80 0
1 80 80 80 80 80 80 80 81 81 81 81 0
1 81 81 81 81 81 81 81 81 81 81 81 0
1 81 81 81 82 82 82 82 82 82 82 82 0
1 83 83 83 83 83 83 83 83 83 83 83 0
1 84 84 84 84 84 84 84 84 84 84 84 0
1 85 85 85 85 85 85 85 85 86 86 86 0
1 86 86 86 86 86 86 86 86 86 86 86 0
1 87 87 87 87 87 87 88 88 88 88 88 0
1 88 88 88 88 88 88 88 88 89 89 90 0
1 90 90 90 90 90 90 90 90 91 91 91 0
1 91 91 91 92 92 92 92 92 92 92 92 0
1 92 92 92 93 93 93 93 93 93 93 93 0
1 94 94 94 94 94 94 94 94 94 94 94 0
1 95 95 95 95 95 95 95 95 95 95 96 0
1 96 96 96 96 96 96 96 96 96 96 96 0
1 96 97 97 97 97 97 97 97 97 97 98 0
1 98 98 98 98 98 98 98 98 98 99 99 0
1 99 99 99 99 99 99 100 100 100 100 100 0
1 100 100 100 0
1  0
1 60 91 140 148 235 266 327 328 497 538 561 0
1 617 654 673 682 721 746 772 793 842 873 874 0
1 963 967 0
1  0
1 46 48 79 82 161 256 285 333 339 373 390 0
1 420 481 554 631 735 747 795 798 815 834 875 0
1  0
1  0
1 31 64 146 206 281 296 327 443 468 482 613 0
1 722 768 830 857 917 987 0
1  0
1 73 124 174 176 217 309 310 425 463 492 496 0
1 551 556 593 639 765 771 858 0
1  0
1 62 69 75 194 278 286 334 355 464 633 701 0
1 748 778 826 951 0
1  0
1 433 489 519 548 552 628 707 714 729 750 882 0
1 950 962 0
1  0
1 67 71 206 222 308 344 356 378 382 573 590 0
1 699 732 757 816 842 912 943 979 0
1  0
1 27 188 205 375 635 670 776 829 830 848 893 0
1 973 978 983 1000 0
1  0
1 81 231 249 254 255 271 453 473 495 563 612 0
1 636 790 916 917 0
1  0
1 46 185 249 282 432 455 531 597 638 701 707 0
1 740 744 792 793 801 880 944 964 978 996 0
1  0
1 129 213 249 256 331 358 439 472 528 529 532 0
1 609 665 694 704 764 772 0
1  0
1 76 79 85 88 94 108 118 205 291 390 493 0
1 591 642 717 738 777 831 881 891 898 920 0
1  0
1 273 325 358 377 417 424 435 456 515 553 571 0
1 761 818 831 834 925 940 952 0
1  0
1 203 268 370 414 428 434 455 472 515 529 571 0
1 586 649 710 746 818 983 0
1  0
1 59 74 165 223 283 298 470 527 655 713 721 0
1 789 812 0
1  0
1 151 172 312 377 391 454 570 596 644 715 804 0
1 911 929 948 986 989 997 0
1  0
1 39 65 75 86 175 184 198 345 408 432 494 0
1 509 517 628 650 658 688 711 718 774 856 914 0
1 955 0
1  0
1 111 117 160 173 186 250 251 260 330 366 475 0
1 586 639 723 737 748 766 834 844 896 988 0
1  0
1 110 126 138 159 166 313 345 405 518 553 555 0
1 749 763 946 0
1  0
1 63 102 128 218 244 263 294 307 436 460 500 0
1 676 718 905 0
1  0
1 156 227 239 249 348 409 502 527 588 693 731 0
1 749 868 902 0
1  0
1 45 138 197 202 240 269 375 458 528 649 711 0
1 769 992 0
1  0
1 153 160 251 288 318 340 344 360 464 466 524 0
1 669 725 819 828 858 918 924 984 0
1  0
1 127 135 149 217 448 583 594 631 649 663 717 0
1 766 839 874 927 942 973 0
1  0
1 55 119 136 176 206 331 334 444 483 516 562 0
1 774 803 936 938 989 0
1  0
1 159 184 187 207 218 230 394 426 442 472 530 0
1 626 714 791 801 833 837 0
1  0
1 38 61 219 355 357 389 417 463 464 473 475 0
1 563 584 592 758 779 797 815 898 903 955 0
1  0
1 277 294 312 317 346 356 432 476 526 539 555 0
1 566 581 637 639 759 841 850 910 917 992 994 0
1  0
1 37 54 103 104 149 183 353 391 402 473 514 0
1 619 678 686 695 698 706 725 850 851 892 933 0
1  0
1  0
1 120 158 262 337 344 409 429 437 493 618 680 0
1  0
1  0
1 120 127 136 158 217 329 536 591 617 679 778 0
1 818 940 0
1  0
1 162 196 235 267 300 335 410 533 655 680 696 0
1 809 843 888 918 0
1  0
1 68 97 104 147 178 197 306 319 332 416 427 0
1 483 528 551 598 608 611 625 630 634 654 655 0
1 714 766 777 813 844 910 0
1  0
1 56 128 146 165 167 201 208 227 320 406 447 0
1 474 481 498 600 651 667 708 726 806 818 832 0
1 909 969 987 0
1  0
1 113 189 232 316 347 363 395 425 543 552 677 0
1 792 0
1  0
1 251 274 315 370 397 471 476 497 586 620 654 0
1 795 808 883 905 919 963 975 0
1  0
1 162 170 469 515 527 530 565 603 672 731 899 0
1 954 961 999 0
